NAME: GRASP_15_0
TYPE: TSP
COMMENT: line_15_0
DIMENSION: 15
EDGE_WEIGHT_TYPE: EUC_2D
NODE_COORD_SECTION
1 0.0 21.0
2 0.0 55.0
3 0.0 119.0
4 0.0 38.0
5 0.0 86.0
6 0.0 6.0
7 0.0 48.0
8 0.0 78.0
9 0.0 54.0
10 0.0 56.0
11 0.0 109.0
12 0.0 146.0
13 0.0 84.0
14 0.0 55.0
15 0.0 48.0
